c 
c G(k,n,p) graph
c graph gen seed     : 732297
c number of vertices : 70
c max number of edges: 1225
c number of classes  : 2
c edge density       : 0.400000
c edge probability   : 0.800000
c data structure     : dense
c
c           Graph Stats
c number of vertices  : 70
c nonisolated vertices: 70
c number of edges     : 989
c edge density        : 0.409524
c max degree          : 33
c avg degree          : 28.26
c min degree          : 21
p col 70 989
e 1 2
e 1 4
e 1 6
e 1 8
e 1 9
e 1 10
e 1 12
e 1 17
e 1 19
e 1 24
e 1 27
e 1 29
e 1 30
e 1 31
e 1 32
e 1 40
e 1 41
e 1 45
e 1 47
e 1 52
e 1 55
e 1 56
e 1 57
e 1 58
e 1 60
e 1 65
e 1 67
e 1 70
e 2 5
e 2 11
e 2 13
e 2 15
e 2 18
e 2 20
e 2 21
e 2 22
e 2 23
e 2 25
e 2 26
e 2 33
e 2 35
e 2 36
e 2 37
e 2 39
e 2 42
e 2 43
e 2 44
e 2 46
e 2 48
e 2 53
e 2 62
e 2 64
e 2 66
e 2 68
e 3 5
e 3 11
e 3 13
e 3 15
e 3 18
e 3 20
e 3 21
e 3 22
e 3 23
e 3 25
e 3 26
e 3 28
e 3 33
e 3 35
e 3 36
e 3 37
e 3 38
e 3 39
e 3 42
e 3 44
e 3 46
e 3 48
e 3 51
e 3 53
e 3 54
e 3 59
e 3 62
e 3 66
e 3 68
e 3 69
e 4 11
e 4 13
e 4 15
e 4 18
e 4 20
e 4 22
e 4 23
e 4 25
e 4 26
e 4 28
e 4 33
e 4 35
e 4 36
e 4 37
e 4 38
e 4 39
e 4 42
e 4 43
e 4 44
e 4 46
e 4 48
e 4 51
e 4 53
e 4 54
e 4 59
e 4 62
e 4 64
e 4 66
e 4 68
e 5 6
e 5 7
e 5 8
e 5 9
e 5 10
e 5 12
e 5 14
e 5 16
e 5 17
e 5 19
e 5 24
e 5 27
e 5 29
e 5 30
e 5 31
e 5 32
e 5 34
e 5 40
e 5 41
e 5 49
e 5 50
e 5 55
e 5 56
e 5 58
e 5 60
e 5 61
e 5 63
e 5 67
e 5 70
e 6 13
e 6 15
e 6 18
e 6 21
e 6 23
e 6 25
e 6 26
e 6 28
e 6 33
e 6 35
e 6 36
e 6 37
e 6 44
e 6 48
e 6 53
e 6 59
e 6 62
e 6 64
e 6 66
e 6 68
e 6 69
e 7 11
e 7 13
e 7 15
e 7 18
e 7 20
e 7 21
e 7 23
e 7 25
e 7 26
e 7 28
e 7 35
e 7 36
e 7 37
e 7 38
e 7 39
e 7 42
e 7 43
e 7 46
e 7 48
e 7 51
e 7 53
e 7 54
e 7 59
e 7 62
e 7 64
e 7 68
e 7 69
e 8 13
e 8 15
e 8 18
e 8 20
e 8 21
e 8 22
e 8 23
e 8 26
e 8 33
e 8 36
e 8 37
e 8 38
e 8 44
e 8 48
e 8 51
e 8 53
e 8 59
e 8 62
e 8 64
e 8 66
e 8 68
e 8 69
e 9 11
e 9 13
e 9 15
e 9 18
e 9 20
e 9 23
e 9 28
e 9 35
e 9 36
e 9 37
e 9 39
e 9 42
e 9 43
e 9 44
e 9 48
e 9 51
e 9 53
e 9 54
e 9 59
e 9 62
e 9 64
e 9 66
e 9 69
e 10 11
e 10 13
e 10 15
e 10 20
e 10 21
e 10 23
e 10 25
e 10 26
e 10 33
e 10 35
e 10 36
e 10 37
e 10 38
e 10 39
e 10 42
e 10 43
e 10 44
e 10 46
e 10 48
e 10 51
e 10 54
e 10 59
e 10 64
e 10 66
e 10 68
e 10 69
e 11 12
e 11 14
e 11 16
e 11 17
e 11 19
e 11 24
e 11 27
e 11 30
e 11 31
e 11 32
e 11 34
e 11 40
e 11 41
e 11 45
e 11 47
e 11 49
e 11 50
e 11 52
e 11 55
e 11 56
e 11 58
e 11 60
e 11 61
e 11 63
e 11 65
e 11 70
e 12 13
e 12 15
e 12 18
e 12 20
e 12 21
e 12 22
e 12 23
e 12 26
e 12 28
e 12 33
e 12 35
e 12 36
e 12 37
e 12 38
e 12 39
e 12 42
e 12 43
e 12 44
e 12 46
e 12 48
e 12 53
e 12 54
e 12 59
e 12 62
e 12 64
e 12 66
e 12 68
e 13 14
e 13 16
e 13 17
e 13 19
e 13 24
e 13 27
e 13 29
e 13 30
e 13 31
e 13 32
e 13 41
e 13 47
e 13 49
e 13 52
e 13 56
e 13 57
e 13 58
e 13 60
e 13 61
e 13 65
e 13 67
e 13 70
e 14 15
e 14 20
e 14 21
e 14 22
e 14 23
e 14 25
e 14 26
e 14 28
e 14 33
e 14 35
e 14 36
e 14 37
e 14 38
e 14 43
e 14 46
e 14 48
e 14 51
e 14 53
e 14 54
e 14 59
e 14 64
e 14 66
e 14 69
e 15 24
e 15 27
e 15 29
e 15 30
e 15 31
e 15 32
e 15 34
e 15 41
e 15 49
e 15 50
e 15 52
e 15 55
e 15 57
e 15 58
e 15 60
e 15 63
e 15 67
e 15 70
e 16 20
e 16 21
e 16 22
e 16 26
e 16 28
e 16 33
e 16 35
e 16 36
e 16 37
e 16 39
e 16 43
e 16 44
e 16 46
e 16 48
e 16 51
e 16 53
e 16 54
e 16 59
e 16 64
e 16 66
e 16 69
e 17 18
e 17 21
e 17 22
e 17 25
e 17 26
e 17 28
e 17 36
e 17 37
e 17 38
e 17 39
e 17 42
e 17 44
e 17 48
e 17 51
e 17 54
e 17 64
e 17 66
e 18 19
e 18 24
e 18 27
e 18 30
e 18 31
e 18 32
e 18 40
e 18 41
e 18 45
e 18 47
e 18 50
e 18 56
e 18 58
e 18 61
e 18 63
e 18 65
e 18 67
e 18 70
e 19 20
e 19 21
e 19 22
e 19 23
e 19 25
e 19 26
e 19 28
e 19 33
e 19 35
e 19 36
e 19 37
e 19 39
e 19 42
e 19 43
e 19 44
e 19 46
e 19 48
e 19 51
e 19 53
e 19 54
e 19 59
e 19 62
e 19 64
e 19 66
e 19 69
e 20 24
e 20 27
e 20 29
e 20 30
e 20 31
e 20 32
e 20 34
e 20 40
e 20 41
e 20 45
e 20 47
e 20 50
e 20 52
e 20 56
e 20 57
e 20 58
e 20 60
e 20 61
e 20 65
e 20 67
e 20 70
e 21 27
e 21 29
e 21 30
e 21 31
e 21 32
e 21 34
e 21 40
e 21 41
e 21 45
e 21 47
e 21 49
e 21 50
e 21 55
e 21 56
e 21 57
e 21 58
e 21 60
e 21 63
e 21 67
e 21 70
e 22 24
e 22 27
e 22 29
e 22 30
e 22 32
e 22 34
e 22 41
e 22 45
e 22 47
e 22 49
e 22 50
e 22 52
e 22 57
e 22 60
e 22 61
e 22 63
e 22 65
e 22 67
e 22 70
e 23 24
e 23 27
e 23 29
e 23 31
e 23 32
e 23 34
e 23 40
e 23 41
e 23 47
e 23 49
e 23 52
e 23 55
e 23 56
e 23 57
e 23 58
e 23 60
e 23 61
e 23 63
e 23 65
e 23 67
e 24 25
e 24 28
e 24 33
e 24 35
e 24 36
e 24 38
e 24 39
e 24 43
e 24 44
e 24 46
e 24 48
e 24 51
e 24 53
e 24 59
e 24 62
e 24 64
e 24 66
e 24 68
e 24 69
e 25 27
e 25 30
e 25 31
e 25 40
e 25 41
e 25 45
e 25 47
e 25 49
e 25 50
e 25 52
e 25 55
e 25 56
e 25 57
e 25 58
e 25 61
e 25 63
e 25 67
e 26 27
e 26 29
e 26 30
e 26 32
e 26 34
e 26 40
e 26 41
e 26 45
e 26 47
e 26 49
e 26 50
e 26 52
e 26 55
e 26 56
e 26 57
e 26 58
e 26 60
e 26 61
e 26 63
e 26 65
e 26 70
e 27 28
e 27 35
e 27 38
e 27 39
e 27 42
e 27 44
e 27 46
e 27 51
e 27 53
e 27 54
e 27 59
e 27 62
e 27 64
e 27 66
e 27 68
e 27 69
e 28 29
e 28 30
e 28 32
e 28 34
e 28 40
e 28 41
e 28 49
e 28 50
e 28 56
e 28 57
e 28 58
e 28 60
e 28 61
e 28 63
e 28 65
e 28 67
e 28 70
e 29 33
e 29 36
e 29 37
e 29 39
e 29 42
e 29 43
e 29 44
e 29 51
e 29 54
e 29 59
e 29 62
e 29 64
e 29 68
e 30 33
e 30 35
e 30 36
e 30 38
e 30 39
e 30 42
e 30 43
e 30 44
e 30 46
e 30 48
e 30 51
e 30 53
e 30 54
e 30 62
e 30 64
e 30 66
e 30 68
e 31 35
e 31 36
e 31 37
e 31 39
e 31 42
e 31 43
e 31 44
e 31 46
e 31 48
e 31 51
e 31 53
e 31 54
e 31 59
e 31 62
e 31 64
e 31 66
e 31 68
e 31 69
e 32 35
e 32 36
e 32 37
e 32 38
e 32 39
e 32 43
e 32 44
e 32 46
e 32 48
e 32 53
e 32 54
e 32 62
e 32 64
e 32 68
e 32 69
e 33 34
e 33 40
e 33 41
e 33 45
e 33 47
e 33 49
e 33 50
e 33 52
e 33 55
e 33 56
e 33 57
e 33 60
e 33 61
e 33 63
e 33 65
e 33 67
e 33 70
e 34 35
e 34 37
e 34 38
e 34 39
e 34 42
e 34 43
e 34 44
e 34 48
e 34 51
e 34 54
e 34 59
e 34 64
e 34 66
e 34 68
e 34 69
e 35 40
e 35 41
e 35 47
e 35 49
e 35 50
e 35 52
e 35 55
e 35 56
e 35 57
e 35 58
e 35 61
e 35 63
e 35 65
e 35 67
e 35 70
e 36 40
e 36 41
e 36 45
e 36 47
e 36 49
e 36 52
e 36 55
e 36 57
e 36 58
e 36 60
e 36 61
e 36 63
e 36 65
e 36 67
e 36 70
e 37 40
e 37 41
e 37 45
e 37 47
e 37 50
e 37 55
e 37 56
e 37 57
e 37 58
e 37 60
e 37 63
e 37 65
e 37 67
e 37 70
e 38 40
e 38 41
e 38 45
e 38 47
e 38 49
e 38 50
e 38 52
e 38 55
e 38 56
e 38 57
e 38 58
e 38 60
e 38 61
e 38 63
e 38 65
e 38 67
e 38 70
e 39 40
e 39 41
e 39 47
e 39 49
e 39 50
e 39 52
e 39 55
e 39 56
e 39 57
e 39 60
e 39 61
e 39 63
e 39 65
e 39 67
e 39 70
e 40 42
e 40 43
e 40 48
e 40 51
e 40 53
e 40 54
e 40 59
e 40 62
e 40 64
e 40 66
e 40 68
e 40 69
e 41 42
e 41 46
e 41 48
e 41 51
e 41 53
e 41 54
e 41 59
e 41 62
e 41 66
e 41 68
e 41 69
e 42 45
e 42 47
e 42 50
e 42 52
e 42 56
e 42 57
e 42 58
e 42 60
e 42 61
e 42 63
e 42 70
e 43 45
e 43 47
e 43 49
e 43 50
e 43 52
e 43 55
e 43 56
e 43 57
e 43 58
e 43 63
e 43 65
e 43 67
e 43 70
e 44 45
e 44 47
e 44 50
e 44 55
e 44 56
e 44 57
e 44 58
e 44 60
e 44 61
e 44 63
e 44 65
e 44 67
e 44 70
e 45 46
e 45 48
e 45 51
e 45 53
e 45 54
e 45 62
e 45 64
e 45 66
e 45 68
e 45 69
e 46 47
e 46 49
e 46 50
e 46 52
e 46 55
e 46 57
e 46 58
e 46 60
e 46 61
e 46 63
e 46 65
e 46 70
e 47 48
e 47 51
e 47 53
e 47 54
e 47 59
e 47 62
e 47 64
e 47 66
e 47 68
e 47 69
e 48 50
e 48 52
e 48 55
e 48 56
e 48 57
e 48 58
e 48 61
e 48 63
e 48 65
e 48 67
e 48 70
e 49 51
e 49 53
e 49 59
e 49 62
e 49 66
e 49 68
e 49 69
e 50 53
e 50 54
e 50 62
e 50 64
e 50 66
e 50 68
e 50 69
e 51 55
e 51 56
e 51 57
e 51 60
e 51 61
e 51 63
e 51 65
e 51 67
e 52 53
e 52 54
e 52 59
e 52 62
e 52 64
e 52 66
e 52 68
e 52 69
e 53 57
e 53 58
e 53 61
e 53 63
e 53 65
e 53 67
e 53 70
e 54 56
e 54 58
e 54 60
e 54 61
e 54 63
e 54 65
e 54 67
e 54 70
e 55 59
e 55 62
e 55 64
e 55 69
e 56 59
e 56 64
e 56 66
e 56 68
e 57 59
e 57 62
e 57 68
e 58 59
e 58 62
e 58 64
e 58 66
e 58 69
e 59 60
e 59 61
e 59 63
e 59 65
e 59 67
e 59 70
e 60 62
e 60 64
e 60 66
e 60 68
e 61 62
e 61 66
e 61 68
e 62 63
e 62 65
e 62 70
e 63 66
e 63 68
e 63 69
e 64 67
e 64 70
e 65 66
e 66 67
e 67 68
e 68 70
e 69 70
